0000000000000000
0000000000000000
0000000000000000
0111111111000000
0000000001100000
0000000001100000
0000000001100000
0000000001100000
0000000001100000
0000000001100000
0000000001100000
0000000001100000
0111111111000000
0000000000000000
0000000000000000
0000000000000000
